p cnf 691 2284
a 2 3 4 5 6 7 8 9 13 18 20 22 23 24 27 29 31 32 34 36 38 39 41 43 45 47 49 51 53 56 57 64 66 70 74 76 78 82 89 94 99 102 103 110 111 115 119 120 123 127 131 133 135 137 139 140 144 148 150 154 158 163 165 169 174 176 177 178 181 183 185 186 188 190 192 193 195 197 199 201 203 205 207 210 211 218 220 224 228 230 232 236 0
e 1 10 11 12 14 15 16 17 19 21 25 26 28 30 33 35 37 40 42 44 46 48 50 52 54 55 58 59 60 61 62 63 65 67 68 69 71 72 73 75 77 79 80 81 83 84 85 86 87 88 90 91 92 93 95 96 97 98 100 101 104 105 106 107 108 109 112 113 114 116 117 118 121 122 124 125 126 128 129 130 132 134 136 138 141 142 143 145 146 147 149 151 152 153 155 156 157 159 160 161 162 164 166 167 168 170 171 172 173 175 179 180 182 184 187 189 191 194 196 198 200 202 204 206 208 209 212 213 214 215 216 217 219 221 222 223 225 226 227 229 231 233 234 235 237 238 239 240 241 242 243 244 245 246 247 248 249 250 251 252 253 254 255 256 257 258 259 260 261 262 263 264 265 266 267 268 269 270 271 272 273 274 275 276 277 278 279 280 281 282 283 284 285 286 287 288 289 290 291 292 293 294 295 296 297 298 299 300 301 302 303 304 305 306 307 308 309 310 311 312 313 314 315 316 317 318 319 320 321 322 323 324 325 326 327 328 329 330 331 332 333 334 335 336 337 338 339 340 341 342 343 344 345 346 347 348 349 350 351 352 353 354 355 356 357 358 359 360 361 362 363 364 365 366 367 368 369 370 371 372 373 374 375 376 377 378 379 380 381 382 383 384 385 386 387 388 389 390 391 392 393 394 395 396 397 398 399 400 401 402 403 404 405 406 407 408 409 410 411 412 413 414 415 416 417 418 419 420 421 422 423 424 425 426 427 428 429 430 431 432 433 434 435 436 437 438 439 440 441 442 443 444 445 446 447 448 449 450 451 452 453 454 455 456 457 458 459 460 461 462 463 464 465 466 467 468 469 470 471 472 473 474 475 476 477 478 479 480 481 482 483 484 485 486 487 488 489 490 491 492 493 494 495 496 497 498 499 500 501 502 503 504 505 506 507 508 509 510 511 512 513 514 515 516 517 518 519 520 521 522 523 524 525 526 527 528 529 530 531 532 533 534 535 536 537 538 539 540 541 542 543 544 545 546 547 548 549 550 551 552 553 554 555 556 557 558 559 560 561 562 563 564 565 566 567 568 569 570 571 572 573 574 575 576 577 578 579 580 581 582 583 584 585 586 587 588 589 590 591 592 593 594 595 596 597 598 599 600 601 602 603 604 605 606 607 608 609 610 611 612 613 614 615 616 617 618 619 620 621 622 623 624 625 626 627 628 629 630 631 632 633 634 635 636 637 638 639 640 641 642 643 644 645 646 647 648 649 650 651 652 653 654 655 656 657 658 659 660 661 662 663 664 665 666 667 668 669 670 671 672 673 674 675 676 677 678 679 680 681 682 683 684 685 686 687 688 689 690 691 0
1 0
8 -10 0
9 -10 0
-8 -9 10 0
8 -11 0
-9 -11 0
-8 9 11 0
8 12 0
-10 12 0
-11 12 0
-8 10 11 -12 0
-13 14 0
13 14 0
7 -15 0
12 -15 0
14 -15 0
-7 -12 -14 15 0
-7 -16 0
12 -16 0
7 -12 16 0
-15 17 0
-16 17 0
15 16 -17 0
-18 19 0
18 19 0
-20 21 0
20 21 0
23 -25 0
-24 -25 0
-23 24 25 0
23 26 0
-25 26 0
-23 25 -26 0
-27 28 0
27 28 0
28 -30 0
29 -30 0
-28 -29 30 0
-32 33 0
32 33 0
33 -35 0
-34 -35 0
-33 34 35 0
33 -37 0
34 -37 0
36 -37 0
-33 -34 -36 37 0
33 -40 0
34 -40 0
-36 -40 0
38 -40 0
39 -40 0
-33 -34 36 -38 -39 40 0
33 -42 0
34 -42 0
-36 -42 0
38 -42 0
-39 -42 0
-41 -42 0
-33 -34 36 -38 39 41 42 0
33 -44 0
34 -44 0
-36 -44 0
-38 -44 0
-43 -44 0
-33 -34 36 38 43 44 0
33 -46 0
34 -46 0
-36 -46 0
-38 -46 0
43 -46 0
45 -46 0
-33 -34 36 38 -43 -45 46 0
33 -48 0
34 -48 0
-36 -48 0
38 -48 0
-39 -48 0
41 -48 0
47 -48 0
-33 -34 36 -38 39 -41 -47 48 0
33 -50 0
34 -50 0
-36 -50 0
38 -50 0
-39 -50 0
41 -50 0
-47 -50 0
49 -50 0
-33 -34 36 -38 39 -41 47 -49 50 0
-51 52 0
51 52 0
33 -54 0
34 -54 0
-36 -54 0
-38 -54 0
43 -54 0
-45 -54 0
52 -54 0
53 -54 0
-33 -34 36 38 -43 45 -52 -53 54 0
33 -55 0
34 -55 0
-36 -55 0
-38 -55 0
43 -55 0
-45 -55 0
52 -55 0
-53 -55 0
-33 -34 36 38 -43 45 -52 53 55 0
56 -58 0
57 -58 0
-56 -57 58 0
56 -59 0
-57 -59 0
-56 57 59 0
56 60 0
-58 60 0
-59 60 0
-56 58 59 -60 0
33 -61 0
34 -61 0
-36 -61 0
38 -61 0
-39 -61 0
41 -61 0
-47 -61 0
-49 -61 0
60 -61 0
-33 -34 36 -38 39 -41 47 49 -60 61 0
-35 62 0
-37 62 0
-40 62 0
-42 62 0
-44 62 0
-46 62 0
-48 62 0
-50 62 0
-54 62 0
-55 62 0
-61 62 0
35 37 40 42 44 46 48 50 54 55 61 -62 0
28 -63 0
-29 -63 0
-31 -63 0
62 -63 0
-28 29 31 -62 63 0
28 -65 0
-29 -65 0
31 -65 0
-64 -65 0
-28 29 -31 64 65 0
28 -67 0
-29 -67 0
31 -67 0
64 -67 0
-66 -67 0
-28 29 -31 -64 66 67 0
28 -68 0
-29 -68 0
31 -68 0
64 -68 0
66 -68 0
-28 29 -31 -64 -66 68 0
-63 69 0
-65 69 0
-67 69 0
-68 69 0
63 65 67 68 -69 0
69 -71 0
70 -71 0
-69 -70 71 0
69 -72 0
-70 -72 0
-69 70 72 0
-30 73 0
-71 73 0
-72 73 0
30 71 72 -73 0
-74 75 0
74 75 0
22 -77 0
26 -77 0
73 -77 0
75 -77 0
76 -77 0
-22 -26 -73 -75 -76 77 0
-78 79 0
78 79 0
22 -80 0
26 -80 0
73 -80 0
75 -80 0
-76 -80 0
79 -80 0
-22 -26 -73 -75 76 -79 80 0
-77 81 0
-80 81 0
77 80 -81 0
81 -83 0
82 -83 0
-81 -82 83 0
81 -84 0
-82 -84 0
-81 82 84 0
22 85 0
-83 85 0
-84 85 0
-22 83 84 -85 0
6 -86 0
17 -86 0
19 -86 0
21 -86 0
85 -86 0
-6 -17 -19 -21 -85 86 0
-6 -87 0
17 -87 0
19 -87 0
21 -87 0
6 -17 -19 -21 87 0
-86 88 0
-87 88 0
86 87 -88 0
89 90 0
-89 90 0
5 -91 0
88 -91 0
90 -91 0
-5 -88 -90 91 0
-5 -92 0
88 -92 0
5 -88 92 0
-91 93 0
-92 93 0
91 92 -93 0
94 95 0
-94 95 0
4 -96 0
93 -96 0
95 -96 0
-4 -93 -95 96 0
-4 -97 0
93 -97 0
4 -93 97 0
-96 98 0
-97 98 0
96 97 -98 0
99 100 0
-99 100 0
3 -101 0
98 -101 0
100 -101 0
-3 -98 -100 101 0
103 104 0
-103 104 0
102 -105 0
98 -105 0
104 -105 0
-102 -98 -104 105 0
-102 -106 0
98 -106 0
102 -98 106 0
-105 107 0
-106 107 0
105 106 -107 0
-3 -108 0
107 -108 0
3 -107 108 0
-101 109 0
-108 109 0
101 108 -109 0
110 -112 0
111 -112 0
-110 -111 112 0
110 -113 0
-111 -113 0
-110 111 113 0
-112 114 0
-113 114 0
112 113 -114 0
114 -116 0
115 -116 0
-114 -115 116 0
114 -117 0
-115 -117 0
-114 115 117 0
-116 118 0
-117 118 0
116 117 -118 0
118 -121 0
-119 -121 0
120 -121 0
-118 119 -120 121 0
118 -122 0
-119 -122 0
-120 -122 0
-118 119 120 122 0
118 -124 0
119 -124 0
123 -124 0
-118 -119 -123 124 0
118 -125 0
119 -125 0
-123 -125 0
-118 -119 123 125 0
-121 126 0
-122 126 0
-124 126 0
-125 126 0
121 122 124 125 -126 0
126 -128 0
127 -128 0
-126 -127 128 0
126 -129 0
-127 -129 0
-126 127 129 0
-128 130 0
-129 130 0
128 129 -130 0
130 -132 0
131 -132 0
-130 -131 132 0
130 -134 0
-131 -134 0
133 -134 0
-130 131 -133 134 0
130 -136 0
-131 -136 0
-133 -136 0
135 -136 0
-130 131 133 -135 136 0
130 -138 0
-131 -138 0
-133 -138 0
-135 -138 0
137 -138 0
-130 131 133 135 -137 138 0
130 -141 0
-131 -141 0
-133 -141 0
-135 -141 0
-137 -141 0
139 -141 0
140 -141 0
-130 131 133 135 137 -139 -140 141 0
130 -142 0
-131 -142 0
-133 -142 0
-135 -142 0
-137 -142 0
139 -142 0
-140 -142 0
-130 131 133 135 137 -139 140 142 0
-141 143 0
-142 143 0
141 142 -143 0
143 -145 0
144 -145 0
-143 -144 145 0
143 -146 0
-144 -146 0
-143 144 146 0
-145 147 0
-146 147 0
145 146 -147 0
147 -149 0
148 -149 0
-147 -148 149 0
130 -151 0
-131 -151 0
-133 -151 0
-135 -151 0
-137 -151 0
-139 -151 0
150 -151 0
-130 131 133 135 137 139 -150 151 0
130 -152 0
-131 -152 0
-133 -152 0
-135 -152 0
-137 -152 0
-139 -152 0
-150 -152 0
-130 131 133 135 137 139 150 152 0
-151 153 0
-152 153 0
151 152 -153 0
153 -155 0
154 -155 0
-153 -154 155 0
153 -156 0
-154 -156 0
-153 154 156 0
-155 157 0
-156 157 0
155 156 -157 0
157 -159 0
158 -159 0
-157 -158 159 0
147 -160 0
-148 -160 0
-147 148 160 0
157 -161 0
-158 -161 0
-157 158 161 0
-149 162 0
-159 162 0
-160 162 0
-161 162 0
149 159 160 161 -162 0
162 -164 0
-163 -164 0
-162 163 164 0
162 -166 0
163 -166 0
165 -166 0
-162 -163 -165 166 0
162 -167 0
163 -167 0
-165 -167 0
-162 -163 165 167 0
110 168 0
-132 168 0
-134 168 0
-136 168 0
-138 168 0
-164 168 0
-166 168 0
-167 168 0
-110 132 134 136 138 164 166 167 -168 0
169 170 0
-169 170 0
2 -171 0
109 -171 0
168 -171 0
170 -171 0
-2 -109 -168 -170 171 0
-2 -172 0
109 -172 0
168 -172 0
2 -109 -168 172 0
-171 173 0
-172 173 0
171 172 -173 0
-174 175 0
174 175 0
177 -179 0
-178 -179 0
-177 178 179 0
177 180 0
-179 180 0
-177 179 -180 0
-181 182 0
181 182 0
182 -184 0
183 -184 0
-182 -183 184 0
-186 187 0
186 187 0
187 -189 0
-188 -189 0
-187 188 189 0
187 -191 0
188 -191 0
190 -191 0
-187 -188 -190 191 0
187 -194 0
188 -194 0
-190 -194 0
192 -194 0
193 -194 0
-187 -188 190 -192 -193 194 0
187 -196 0
188 -196 0
-190 -196 0
192 -196 0
-193 -196 0
-195 -196 0
-187 -188 190 -192 193 195 196 0
187 -198 0
188 -198 0
-190 -198 0
-192 -198 0
-197 -198 0
-187 -188 190 192 197 198 0
187 -200 0
188 -200 0
-190 -200 0
-192 -200 0
197 -200 0
199 -200 0
-187 -188 190 192 -197 -199 200 0
187 -202 0
188 -202 0
-190 -202 0
192 -202 0
-193 -202 0
195 -202 0
201 -202 0
-187 -188 190 -192 193 -195 -201 202 0
187 -204 0
188 -204 0
-190 -204 0
192 -204 0
-193 -204 0
195 -204 0
-201 -204 0
203 -204 0
-187 -188 190 -192 193 -195 201 -203 204 0
-205 206 0
205 206 0
187 -208 0
188 -208 0
-190 -208 0
-192 -208 0
197 -208 0
-199 -208 0
206 -208 0
207 -208 0
-187 -188 190 192 -197 199 -206 -207 208 0
187 -209 0
188 -209 0
-190 -209 0
-192 -209 0
197 -209 0
-199 -209 0
206 -209 0
-207 -209 0
-187 -188 190 192 -197 199 -206 207 209 0
210 -212 0
211 -212 0
-210 -211 212 0
210 -213 0
-211 -213 0
-210 211 213 0
210 214 0
-212 214 0
-213 214 0
-210 212 213 -214 0
187 -215 0
188 -215 0
-190 -215 0
192 -215 0
-193 -215 0
195 -215 0
-201 -215 0
-203 -215 0
214 -215 0
-187 -188 190 -192 193 -195 201 203 -214 215 0
-189 216 0
-191 216 0
-194 216 0
-196 216 0
-198 216 0
-200 216 0
-202 216 0
-204 216 0
-208 216 0
-209 216 0
-215 216 0
189 191 194 196 198 200 202 204 208 209 215 -216 0
182 -217 0
-183 -217 0
-185 -217 0
216 -217 0
-182 183 185 -216 217 0
182 -219 0
-183 -219 0
185 -219 0
-218 -219 0
-182 183 -185 218 219 0
182 -221 0
-183 -221 0
185 -221 0
218 -221 0
-220 -221 0
-182 183 -185 -218 220 221 0
182 -222 0
-183 -222 0
185 -222 0
218 -222 0
220 -222 0
-182 183 -185 -218 -220 222 0
-217 223 0
-219 223 0
-221 223 0
-222 223 0
217 219 221 222 -223 0
223 -225 0
224 -225 0
-223 -224 225 0
223 -226 0
-224 -226 0
-223 224 226 0
-184 227 0
-225 227 0
-226 227 0
184 225 226 -227 0
-228 229 0
228 229 0
176 -231 0
180 -231 0
227 -231 0
229 -231 0
230 -231 0
-176 -180 -227 -229 -230 231 0
-232 233 0
232 233 0
176 -234 0
180 -234 0
227 -234 0
229 -234 0
-230 -234 0
233 -234 0
-176 -180 -227 -229 230 -233 234 0
-231 235 0
-234 235 0
231 234 -235 0
235 -237 0
236 -237 0
-235 -236 237 0
235 -238 0
-236 -238 0
-235 236 238 0
176 239 0
-237 239 0
-238 239 0
-176 237 238 -239 0
173 -240 0
175 -240 0
239 -240 0
-173 -175 -239 240 0
-13 241 0
13 241 0
7 -242 0
241 -242 0
-7 -241 242 0
-242 243 0
7 243 0
242 -7 -243 0
243 -244 0
-22 -244 0
-243 22 244 0
243 -245 0
28 -245 0
29 -245 0
-243 -28 -29 245 0
243 -246 0
28 -246 0
-29 -246 0
31 -246 0
64 -246 0
-66 -246 0
-243 -28 29 -31 -64 66 246 0
243 -247 0
28 -247 0
-29 -247 0
31 -247 0
64 -247 0
66 -247 0
-243 -28 29 -31 -64 -66 247 0
243 -248 0
28 -248 0
-29 -248 0
31 -248 0
-64 -248 0
-243 -28 29 -31 64 248 0
243 -249 0
32 -249 0
-243 -32 249 0
243 -250 0
-32 -250 0
-243 32 250 0
-249 251 0
-250 251 0
249 250 -251 0
-35 252 0
-37 252 0
-40 252 0
-42 252 0
-44 252 0
-46 252 0
-48 252 0
-50 252 0
35 37 40 42 44 46 48 50 -252 0
251 -253 0
252 -253 0
-251 -252 253 0
251 -254 0
33 -254 0
34 -254 0
-36 -254 0
38 -254 0
-39 -254 0
41 -254 0
-47 -254 0
-49 -254 0
60 -254 0
-251 -33 -34 36 -38 39 -41 47 49 -60 254 0
-54 255 0
-55 255 0
54 55 -255 0
251 -256 0
255 -256 0
-251 -255 256 0
-253 257 0
-254 257 0
-256 257 0
253 254 256 -257 0
257 -258 0
28 -258 0
-29 -258 0
-31 -258 0
62 -258 0
-257 -28 29 31 -62 258 0
-246 259 0
-247 259 0
-248 259 0
-258 259 0
246 247 248 258 -259 0
259 -260 0
69 -260 0
70 -260 0
-259 -69 -70 260 0
259 -261 0
69 -261 0
-70 -261 0
-259 -69 70 261 0
-245 262 0
-260 262 0
-261 262 0
245 260 261 -262 0
262 -263 0
22 -263 0
26 -263 0
73 -263 0
75 -263 0
76 -263 0
-262 -22 -26 -73 -75 -76 263 0
262 -264 0
22 -264 0
26 -264 0
73 -264 0
75 -264 0
-76 -264 0
79 -264 0
-262 -22 -26 -73 -75 76 -79 264 0
-263 265 0
-264 265 0
263 264 -265 0
-83 266 0
-84 266 0
83 84 -266 0
265 -267 0
266 -267 0
-265 -266 267 0
-244 268 0
-267 268 0
244 267 -268 0
6 -269 0
268 -269 0
-6 -268 269 0
-6 -270 0
243 -270 0
6 -243 270 0
-269 271 0
-270 271 0
269 270 -271 0
271 -272 0
-89 -272 0
-271 89 272 0
271 -273 0
89 -273 0
-271 -89 273 0
-272 274 0
-273 274 0
272 273 -274 0
5 -275 0
274 -275 0
-5 -274 275 0
-5 -276 0
271 -276 0
5 -271 276 0
-275 277 0
-276 277 0
275 276 -277 0
277 -278 0
-94 -278 0
-277 94 278 0
277 -279 0
94 -279 0
-277 -94 279 0
-278 280 0
-279 280 0
278 279 -280 0
4 -281 0
280 -281 0
-4 -280 281 0
-4 -282 0
277 -282 0
4 -277 282 0
-281 283 0
-282 283 0
281 282 -283 0
283 -284 0
-99 -284 0
-283 99 284 0
283 -285 0
99 -285 0
-283 -99 285 0
-284 286 0
-285 286 0
284 285 -286 0
3 -287 0
286 -287 0
-3 -286 287 0
283 -288 0
-103 -288 0
-283 103 288 0
283 -289 0
103 -289 0
-283 -103 289 0
-288 290 0
-289 290 0
288 289 -290 0
102 -291 0
290 -291 0
-102 -290 291 0
-102 -292 0
283 -292 0
102 -283 292 0
-291 293 0
-292 293 0
291 292 -293 0
-3 -294 0
293 -294 0
3 -293 294 0
-287 295 0
-294 295 0
287 294 -295 0
295 -296 0
-110 -296 0
-295 110 296 0
295 -297 0
110 -297 0
111 -297 0
-295 -110 -111 297 0
295 -298 0
110 -298 0
-111 -298 0
-295 -110 111 298 0
-297 299 0
-298 299 0
297 298 -299 0
299 -300 0
114 -300 0
115 -300 0
-299 -114 -115 300 0
299 -301 0
114 -301 0
-115 -301 0
-299 -114 115 301 0
-300 302 0
-301 302 0
300 301 -302 0
302 -303 0
126 -303 0
127 -303 0
-302 -126 -127 303 0
302 -304 0
126 -304 0
-127 -304 0
-302 -126 127 304 0
-303 305 0
-304 305 0
303 304 -305 0
-132 306 0
-134 306 0
-136 306 0
-138 306 0
132 134 136 138 -306 0
305 -307 0
306 -307 0
-305 -306 307 0
305 -308 0
130 -308 0
-131 -308 0
-133 -308 0
-135 -308 0
-137 -308 0
-139 -308 0
150 -308 0
-305 -130 131 133 135 137 139 -150 308 0
305 -309 0
130 -309 0
-131 -309 0
-133 -309 0
-135 -309 0
-137 -309 0
-139 -309 0
-150 -309 0
-305 -130 131 133 135 137 139 150 309 0
-308 310 0
-309 310 0
308 309 -310 0
310 -311 0
153 -311 0
154 -311 0
-310 -153 -154 311 0
310 -312 0
153 -312 0
-154 -312 0
-310 -153 154 312 0
-311 313 0
-312 313 0
311 312 -313 0
313 -314 0
157 -314 0
158 -314 0
-313 -157 -158 314 0
313 -315 0
157 -315 0
-158 -315 0
-313 -157 158 315 0
305 -316 0
130 -316 0
-131 -316 0
-133 -316 0
-135 -316 0
-137 -316 0
139 -316 0
140 -316 0
-305 -130 131 133 135 137 -139 -140 316 0
305 -317 0
130 -317 0
-131 -317 0
-133 -317 0
-135 -317 0
-137 -317 0
139 -317 0
-140 -317 0
-305 -130 131 133 135 137 -139 140 317 0
-316 318 0
-317 318 0
316 317 -318 0
318 -319 0
143 -319 0
144 -319 0
-318 -143 -144 319 0
318 -320 0
143 -320 0
-144 -320 0
-318 -143 144 320 0
-319 321 0
-320 321 0
319 320 -321 0
321 -322 0
147 -322 0
148 -322 0
-321 -147 -148 322 0
321 -323 0
147 -323 0
-148 -323 0
-321 -147 148 323 0
-314 324 0
-315 324 0
-322 324 0
-323 324 0
314 315 322 323 -324 0
-166 325 0
-167 325 0
166 167 -325 0
-164 326 0
-325 326 0
164 325 -326 0
324 -327 0
326 -327 0
-324 -326 327 0
-296 328 0
-307 328 0
-327 328 0
296 307 327 -328 0
328 -329 0
-169 -329 0
-328 169 329 0
328 -330 0
169 -330 0
-328 -169 330 0
-329 331 0
-330 331 0
329 330 -331 0
2 -332 0
331 -332 0
-2 -331 332 0
-2 -333 0
328 -333 0
2 -328 333 0
-332 334 0
-333 334 0
332 333 -334 0
334 -335 0
-176 -335 0
-334 176 335 0
334 -336 0
182 -336 0
183 -336 0
-334 -182 -183 336 0
334 -337 0
182 -337 0
-183 -337 0
185 -337 0
218 -337 0
-220 -337 0
-334 -182 183 -185 -218 220 337 0
334 -338 0
182 -338 0
-183 -338 0
185 -338 0
218 -338 0
220 -338 0
-334 -182 183 -185 -218 -220 338 0
334 -339 0
182 -339 0
-183 -339 0
185 -339 0
-218 -339 0
-334 -182 183 -185 218 339 0
334 -340 0
186 -340 0
-334 -186 340 0
334 -341 0
-186 -341 0
-334 186 341 0
-340 342 0
-341 342 0
340 341 -342 0
-189 343 0
-191 343 0
-194 343 0
-196 343 0
-198 343 0
-200 343 0
-202 343 0
-204 343 0
189 191 194 196 198 200 202 204 -343 0
342 -344 0
343 -344 0
-342 -343 344 0
342 -345 0
187 -345 0
188 -345 0
-190 -345 0
192 -345 0
-193 -345 0
195 -345 0
-201 -345 0
-203 -345 0
214 -345 0
-342 -187 -188 190 -192 193 -195 201 203 -214 345 0
-208 346 0
-209 346 0
208 209 -346 0
342 -347 0
346 -347 0
-342 -346 347 0
-344 348 0
-345 348 0
-347 348 0
344 345 347 -348 0
348 -349 0
182 -349 0
-183 -349 0
-185 -349 0
216 -349 0
-348 -182 183 185 -216 349 0
-337 350 0
-338 350 0
-339 350 0
-349 350 0
337 338 339 349 -350 0
350 -351 0
223 -351 0
224 -351 0
-350 -223 -224 351 0
350 -352 0
223 -352 0
-224 -352 0
-350 -223 224 352 0
-336 353 0
-351 353 0
-352 353 0
336 351 352 -353 0
353 -354 0
176 -354 0
180 -354 0
227 -354 0
229 -354 0
230 -354 0
-353 -176 -180 -227 -229 -230 354 0
353 -355 0
176 -355 0
180 -355 0
227 -355 0
229 -355 0
-230 -355 0
233 -355 0
-353 -176 -180 -227 -229 230 -233 355 0
-354 356 0
-355 356 0
354 355 -356 0
-237 357 0
-238 357 0
237 238 -357 0
356 -358 0
357 -358 0
-356 -357 358 0
-335 359 0
-358 359 0
335 358 -359 0
-13 360 0
13 360 0
7 -361 0
360 -361 0
-7 -360 361 0
-361 362 0
7 362 0
361 -7 -362 0
362 -363 0
-22 -363 0
-362 22 363 0
362 -364 0
28 -364 0
29 -364 0
-362 -28 -29 364 0
362 -365 0
28 -365 0
-29 -365 0
31 -365 0
64 -365 0
-66 -365 0
-362 -28 29 -31 -64 66 365 0
362 -366 0
28 -366 0
-29 -366 0
31 -366 0
64 -366 0
66 -366 0
-362 -28 29 -31 -64 -66 366 0
362 -367 0
28 -367 0
-29 -367 0
31 -367 0
-64 -367 0
-362 -28 29 -31 64 367 0
362 -368 0
32 -368 0
-362 -32 368 0
362 -369 0
-32 -369 0
-362 32 369 0
-368 370 0
-369 370 0
368 369 -370 0
-35 371 0
-37 371 0
-40 371 0
-42 371 0
-44 371 0
-46 371 0
-48 371 0
-50 371 0
35 37 40 42 44 46 48 50 -371 0
370 -372 0
371 -372 0
-370 -371 372 0
370 -373 0
33 -373 0
34 -373 0
-36 -373 0
38 -373 0
-39 -373 0
41 -373 0
-47 -373 0
-49 -373 0
60 -373 0
-370 -33 -34 36 -38 39 -41 47 49 -60 373 0
370 -374 0
255 -374 0
-370 -255 374 0
-372 375 0
-373 375 0
-374 375 0
372 373 374 -375 0
375 -376 0
28 -376 0
-29 -376 0
-31 -376 0
62 -376 0
-375 -28 29 31 -62 376 0
-365 377 0
-366 377 0
-367 377 0
-376 377 0
365 366 367 376 -377 0
377 -378 0
69 -378 0
70 -378 0
-377 -69 -70 378 0
377 -379 0
69 -379 0
-70 -379 0
-377 -69 70 379 0
-364 380 0
-378 380 0
-379 380 0
364 378 379 -380 0
380 -381 0
22 -381 0
26 -381 0
73 -381 0
75 -381 0
76 -381 0
-380 -22 -26 -73 -75 -76 381 0
380 -382 0
22 -382 0
26 -382 0
73 -382 0
75 -382 0
-76 -382 0
79 -382 0
-380 -22 -26 -73 -75 76 -79 382 0
-381 383 0
-382 383 0
381 382 -383 0
383 -384 0
266 -384 0
-383 -266 384 0
-363 385 0
-384 385 0
363 384 -385 0
6 -386 0
385 -386 0
-6 -385 386 0
-6 -387 0
362 -387 0
6 -362 387 0
-386 388 0
-387 388 0
386 387 -388 0
388 -389 0
-89 -389 0
-388 89 389 0
388 -390 0
89 -390 0
-388 -89 390 0
-389 391 0
-390 391 0
389 390 -391 0
5 -392 0
391 -392 0
-5 -391 392 0
-5 -393 0
388 -393 0
5 -388 393 0
-392 394 0
-393 394 0
392 393 -394 0
394 -395 0
-94 -395 0
-394 94 395 0
394 -396 0
94 -396 0
-394 -94 396 0
-395 397 0
-396 397 0
395 396 -397 0
4 -398 0
397 -398 0
-4 -397 398 0
-4 -399 0
394 -399 0
4 -394 399 0
-398 400 0
-399 400 0
398 399 -400 0
400 -401 0
-99 -401 0
-400 99 401 0
400 -402 0
99 -402 0
-400 -99 402 0
-401 403 0
-402 403 0
401 402 -403 0
3 -404 0
403 -404 0
-3 -403 404 0
400 -405 0
-103 -405 0
-400 103 405 0
400 -406 0
103 -406 0
-400 -103 406 0
-405 407 0
-406 407 0
405 406 -407 0
102 -408 0
407 -408 0
-102 -407 408 0
-102 -409 0
400 -409 0
102 -400 409 0
-408 410 0
-409 410 0
408 409 -410 0
-3 -411 0
410 -411 0
3 -410 411 0
-404 412 0
-411 412 0
404 411 -412 0
412 -413 0
-110 -413 0
-412 110 413 0
412 -414 0
110 -414 0
111 -414 0
-412 -110 -111 414 0
412 -415 0
110 -415 0
-111 -415 0
-412 -110 111 415 0
-414 416 0
-415 416 0
414 415 -416 0
416 -417 0
114 -417 0
115 -417 0
-416 -114 -115 417 0
416 -418 0
114 -418 0
-115 -418 0
-416 -114 115 418 0
-417 419 0
-418 419 0
417 418 -419 0
419 -420 0
126 -420 0
127 -420 0
-419 -126 -127 420 0
419 -421 0
126 -421 0
-127 -421 0
-419 -126 127 421 0
-420 422 0
-421 422 0
420 421 -422 0
-132 423 0
-134 423 0
-136 423 0
-138 423 0
132 134 136 138 -423 0
422 -424 0
423 -424 0
-422 -423 424 0
422 -425 0
130 -425 0
-131 -425 0
-133 -425 0
-135 -425 0
-137 -425 0
-139 -425 0
150 -425 0
-422 -130 131 133 135 137 139 -150 425 0
422 -426 0
130 -426 0
-131 -426 0
-133 -426 0
-135 -426 0
-137 -426 0
-139 -426 0
-150 -426 0
-422 -130 131 133 135 137 139 150 426 0
-425 427 0
-426 427 0
425 426 -427 0
427 -428 0
153 -428 0
154 -428 0
-427 -153 -154 428 0
427 -429 0
153 -429 0
-154 -429 0
-427 -153 154 429 0
-428 430 0
-429 430 0
428 429 -430 0
430 -431 0
157 -431 0
158 -431 0
-430 -157 -158 431 0
430 -432 0
157 -432 0
-158 -432 0
-430 -157 158 432 0
422 -433 0
130 -433 0
-131 -433 0
-133 -433 0
-135 -433 0
-137 -433 0
139 -433 0
140 -433 0
-422 -130 131 133 135 137 -139 -140 433 0
422 -434 0
130 -434 0
-131 -434 0
-133 -434 0
-135 -434 0
-137 -434 0
139 -434 0
-140 -434 0
-422 -130 131 133 135 137 -139 140 434 0
-433 435 0
-434 435 0
433 434 -435 0
435 -436 0
143 -436 0
144 -436 0
-435 -143 -144 436 0
435 -437 0
143 -437 0
-144 -437 0
-435 -143 144 437 0
-436 438 0
-437 438 0
436 437 -438 0
438 -439 0
147 -439 0
148 -439 0
-438 -147 -148 439 0
438 -440 0
147 -440 0
-148 -440 0
-438 -147 148 440 0
-431 441 0
-432 441 0
-439 441 0
-440 441 0
431 432 439 440 -441 0
-164 442 0
-325 442 0
164 325 -442 0
441 -443 0
442 -443 0
-441 -442 443 0
-413 444 0
-424 444 0
-443 444 0
413 424 443 -444 0
444 -445 0
-169 -445 0
-444 169 445 0
444 -446 0
169 -446 0
-444 -169 446 0
-445 447 0
-446 447 0
445 446 -447 0
2 -448 0
447 -448 0
-2 -447 448 0
-2 -449 0
444 -449 0
2 -444 449 0
-448 450 0
-449 450 0
448 449 -450 0
450 -451 0
-176 -451 0
-450 176 451 0
450 -452 0
182 -452 0
183 -452 0
-450 -182 -183 452 0
450 -453 0
182 -453 0
-183 -453 0
185 -453 0
218 -453 0
-220 -453 0
-450 -182 183 -185 -218 220 453 0
450 -454 0
182 -454 0
-183 -454 0
185 -454 0
218 -454 0
220 -454 0
-450 -182 183 -185 -218 -220 454 0
450 -455 0
182 -455 0
-183 -455 0
185 -455 0
-218 -455 0
-450 -182 183 -185 218 455 0
450 -456 0
186 -456 0
-450 -186 456 0
450 -457 0
-186 -457 0
-450 186 457 0
-456 458 0
-457 458 0
456 457 -458 0
-189 459 0
-191 459 0
-194 459 0
-196 459 0
-198 459 0
-200 459 0
-202 459 0
-204 459 0
189 191 194 196 198 200 202 204 -459 0
458 -460 0
459 -460 0
-458 -459 460 0
458 -461 0
187 -461 0
188 -461 0
-190 -461 0
192 -461 0
-193 -461 0
195 -461 0
-201 -461 0
-203 -461 0
214 -461 0
-458 -187 -188 190 -192 193 -195 201 203 -214 461 0
458 -462 0
346 -462 0
-458 -346 462 0
-460 463 0
-461 463 0
-462 463 0
460 461 462 -463 0
463 -464 0
182 -464 0
-183 -464 0
-185 -464 0
216 -464 0
-463 -182 183 185 -216 464 0
-453 465 0
-454 465 0
-455 465 0
-464 465 0
453 454 455 464 -465 0
465 -466 0
223 -466 0
224 -466 0
-465 -223 -224 466 0
465 -467 0
223 -467 0
-224 -467 0
-465 -223 224 467 0
-452 468 0
-466 468 0
-467 468 0
452 466 467 -468 0
468 -469 0
176 -469 0
180 -469 0
227 -469 0
229 -469 0
230 -469 0
-468 -176 -180 -227 -229 -230 469 0
468 -470 0
176 -470 0
180 -470 0
227 -470 0
229 -470 0
-230 -470 0
233 -470 0
-468 -176 -180 -227 -229 230 -233 470 0
-469 471 0
-470 471 0
469 470 -471 0
471 -472 0
357 -472 0
-471 -357 472 0
-451 473 0
-472 473 0
451 472 -473 0
479 -481 0
480 -481 0
-479 -480 481 0
479 -482 0
-480 -482 0
-479 480 482 0
479 483 0
-481 483 0
-482 483 0
-479 481 482 -483 0
-484 485 0
484 485 0
478 -486 0
483 -486 0
485 -486 0
-478 -483 -485 486 0
-478 -487 0
483 -487 0
478 -483 487 0
-486 488 0
-487 488 0
486 487 -488 0
-489 490 0
489 490 0
-491 492 0
491 492 0
494 -496 0
-495 -496 0
-494 495 496 0
494 497 0
-496 497 0
-494 496 -497 0
-498 499 0
498 499 0
499 -501 0
500 -501 0
-499 -500 501 0
-503 504 0
503 504 0
504 -506 0
-505 -506 0
-504 505 506 0
504 -508 0
505 -508 0
507 -508 0
-504 -505 -507 508 0
504 -511 0
505 -511 0
-507 -511 0
509 -511 0
510 -511 0
-504 -505 507 -509 -510 511 0
504 -513 0
505 -513 0
-507 -513 0
509 -513 0
-510 -513 0
-512 -513 0
-504 -505 507 -509 510 512 513 0
504 -515 0
505 -515 0
-507 -515 0
-509 -515 0
-514 -515 0
-504 -505 507 509 514 515 0
504 -517 0
505 -517 0
-507 -517 0
-509 -517 0
514 -517 0
516 -517 0
-504 -505 507 509 -514 -516 517 0
504 -519 0
505 -519 0
-507 -519 0
509 -519 0
-510 -519 0
512 -519 0
518 -519 0
-504 -505 507 -509 510 -512 -518 519 0
504 -521 0
505 -521 0
-507 -521 0
509 -521 0
-510 -521 0
512 -521 0
-518 -521 0
520 -521 0
-504 -505 507 -509 510 -512 518 -520 521 0
-522 523 0
522 523 0
504 -525 0
505 -525 0
-507 -525 0
-509 -525 0
514 -525 0
-516 -525 0
523 -525 0
524 -525 0
-504 -505 507 509 -514 516 -523 -524 525 0
504 -526 0
505 -526 0
-507 -526 0
-509 -526 0
514 -526 0
-516 -526 0
523 -526 0
-524 -526 0
-504 -505 507 509 -514 516 -523 524 526 0
527 -529 0
528 -529 0
-527 -528 529 0
527 -530 0
-528 -530 0
-527 528 530 0
527 531 0
-529 531 0
-530 531 0
-527 529 530 -531 0
504 -532 0
505 -532 0
-507 -532 0
509 -532 0
-510 -532 0
512 -532 0
-518 -532 0
-520 -532 0
531 -532 0
-504 -505 507 -509 510 -512 518 520 -531 532 0
-506 533 0
-508 533 0
-511 533 0
-513 533 0
-515 533 0
-517 533 0
-519 533 0
-521 533 0
-525 533 0
-526 533 0
-532 533 0
506 508 511 513 515 517 519 521 525 526 532 -533 0
499 -534 0
-500 -534 0
-502 -534 0
533 -534 0
-499 500 502 -533 534 0
499 -536 0
-500 -536 0
502 -536 0
-535 -536 0
-499 500 -502 535 536 0
499 -538 0
-500 -538 0
502 -538 0
535 -538 0
-537 -538 0
-499 500 -502 -535 537 538 0
499 -539 0
-500 -539 0
502 -539 0
535 -539 0
537 -539 0
-499 500 -502 -535 -537 539 0
-534 540 0
-536 540 0
-538 540 0
-539 540 0
534 536 538 539 -540 0
540 -542 0
541 -542 0
-540 -541 542 0
540 -543 0
-541 -543 0
-540 541 543 0
-501 544 0
-542 544 0
-543 544 0
501 542 543 -544 0
-545 546 0
545 546 0
493 -548 0
497 -548 0
544 -548 0
546 -548 0
547 -548 0
-493 -497 -544 -546 -547 548 0
-549 550 0
549 550 0
493 -551 0
497 -551 0
544 -551 0
546 -551 0
-547 -551 0
550 -551 0
-493 -497 -544 -546 547 -550 551 0
-548 552 0
-551 552 0
548 551 -552 0
552 -554 0
553 -554 0
-552 -553 554 0
552 -555 0
-553 -555 0
-552 553 555 0
493 556 0
-554 556 0
-555 556 0
-493 554 555 -556 0
477 -557 0
488 -557 0
490 -557 0
492 -557 0
556 -557 0
-477 -488 -490 -492 -556 557 0
-477 -558 0
488 -558 0
490 -558 0
492 -558 0
477 -488 -490 -492 558 0
-557 559 0
-558 559 0
557 558 -559 0
560 561 0
-560 561 0
476 -562 0
559 -562 0
561 -562 0
-476 -559 -561 562 0
-476 -563 0
559 -563 0
476 -559 563 0
-562 564 0
-563 564 0
562 563 -564 0
565 566 0
-565 566 0
475 -567 0
564 -567 0
566 -567 0
-475 -564 -566 567 0
-475 -568 0
564 -568 0
475 -564 568 0
-567 569 0
-568 569 0
567 568 -569 0
570 571 0
-570 571 0
474 -572 0
569 -572 0
571 -572 0
-474 -569 -571 572 0
574 575 0
-574 575 0
573 -576 0
569 -576 0
575 -576 0
-573 -569 -575 576 0
-573 -577 0
569 -577 0
573 -569 577 0
-576 578 0
-577 578 0
576 577 -578 0
-474 -579 0
578 -579 0
474 -578 579 0
-572 580 0
-579 580 0
572 579 -580 0
-484 581 0
484 581 0
478 -582 0
581 -582 0
-478 -581 582 0
-582 583 0
478 583 0
582 -478 -583 0
583 -584 0
-493 -584 0
-583 493 584 0
583 -585 0
499 -585 0
500 -585 0
-583 -499 -500 585 0
583 -586 0
499 -586 0
-500 -586 0
502 -586 0
535 -586 0
-537 -586 0
-583 -499 500 -502 -535 537 586 0
583 -587 0
499 -587 0
-500 -587 0
502 -587 0
535 -587 0
537 -587 0
-583 -499 500 -502 -535 -537 587 0
583 -588 0
499 -588 0
-500 -588 0
502 -588 0
-535 -588 0
-583 -499 500 -502 535 588 0
583 -589 0
503 -589 0
-583 -503 589 0
583 -590 0
-503 -590 0
-583 503 590 0
-589 591 0
-590 591 0
589 590 -591 0
-506 592 0
-508 592 0
-511 592 0
-513 592 0
-515 592 0
-517 592 0
-519 592 0
-521 592 0
506 508 511 513 515 517 519 521 -592 0
591 -593 0
592 -593 0
-591 -592 593 0
591 -594 0
504 -594 0
505 -594 0
-507 -594 0
509 -594 0
-510 -594 0
512 -594 0
-518 -594 0
-520 -594 0
531 -594 0
-591 -504 -505 507 -509 510 -512 518 520 -531 594 0
-525 595 0
-526 595 0
525 526 -595 0
591 -596 0
595 -596 0
-591 -595 596 0
-593 597 0
-594 597 0
-596 597 0
593 594 596 -597 0
597 -598 0
499 -598 0
-500 -598 0
-502 -598 0
533 -598 0
-597 -499 500 502 -533 598 0
-586 599 0
-587 599 0
-588 599 0
-598 599 0
586 587 588 598 -599 0
599 -600 0
540 -600 0
541 -600 0
-599 -540 -541 600 0
599 -601 0
540 -601 0
-541 -601 0
-599 -540 541 601 0
-585 602 0
-600 602 0
-601 602 0
585 600 601 -602 0
602 -603 0
493 -603 0
497 -603 0
544 -603 0
546 -603 0
547 -603 0
-602 -493 -497 -544 -546 -547 603 0
602 -604 0
493 -604 0
497 -604 0
544 -604 0
546 -604 0
-547 -604 0
550 -604 0
-602 -493 -497 -544 -546 547 -550 604 0
-603 605 0
-604 605 0
603 604 -605 0
-554 606 0
-555 606 0
554 555 -606 0
605 -607 0
606 -607 0
-605 -606 607 0
-584 608 0
-607 608 0
584 607 -608 0
477 -609 0
608 -609 0
-477 -608 609 0
-477 -610 0
583 -610 0
477 -583 610 0
-609 611 0
-610 611 0
609 610 -611 0
611 -612 0
-560 -612 0
-611 560 612 0
611 -613 0
560 -613 0
-611 -560 613 0
-612 614 0
-613 614 0
612 613 -614 0
476 -615 0
614 -615 0
-476 -614 615 0
-476 -616 0
611 -616 0
476 -611 616 0
-615 617 0
-616 617 0
615 616 -617 0
617 -618 0
-565 -618 0
-617 565 618 0
617 -619 0
565 -619 0
-617 -565 619 0
-618 620 0
-619 620 0
618 619 -620 0
475 -621 0
620 -621 0
-475 -620 621 0
-475 -622 0
617 -622 0
475 -617 622 0
-621 623 0
-622 623 0
621 622 -623 0
623 -624 0
-570 -624 0
-623 570 624 0
623 -625 0
570 -625 0
-623 -570 625 0
-624 626 0
-625 626 0
624 625 -626 0
474 -627 0
626 -627 0
-474 -626 627 0
623 -628 0
-574 -628 0
-623 574 628 0
623 -629 0
574 -629 0
-623 -574 629 0
-628 630 0
-629 630 0
628 629 -630 0
573 -631 0
630 -631 0
-573 -630 631 0
-573 -632 0
623 -632 0
573 -623 632 0
-631 633 0
-632 633 0
631 632 -633 0
-474 -634 0
633 -634 0
474 -633 634 0
-627 635 0
-634 635 0
627 634 -635 0
-484 636 0
484 636 0
478 -637 0
636 -637 0
-478 -636 637 0
-637 638 0
478 638 0
637 -478 -638 0
638 -639 0
-493 -639 0
-638 493 639 0
638 -640 0
499 -640 0
500 -640 0
-638 -499 -500 640 0
638 -641 0
499 -641 0
-500 -641 0
502 -641 0
535 -641 0
-537 -641 0
-638 -499 500 -502 -535 537 641 0
638 -642 0
499 -642 0
-500 -642 0
502 -642 0
535 -642 0
537 -642 0
-638 -499 500 -502 -535 -537 642 0
638 -643 0
499 -643 0
-500 -643 0
502 -643 0
-535 -643 0
-638 -499 500 -502 535 643 0
638 -644 0
503 -644 0
-638 -503 644 0
638 -645 0
-503 -645 0
-638 503 645 0
-644 646 0
-645 646 0
644 645 -646 0
-506 647 0
-508 647 0
-511 647 0
-513 647 0
-515 647 0
-517 647 0
-519 647 0
-521 647 0
506 508 511 513 515 517 519 521 -647 0
646 -648 0
647 -648 0
-646 -647 648 0
646 -649 0
504 -649 0
505 -649 0
-507 -649 0
509 -649 0
-510 -649 0
512 -649 0
-518 -649 0
-520 -649 0
531 -649 0
-646 -504 -505 507 -509 510 -512 518 520 -531 649 0
646 -650 0
595 -650 0
-646 -595 650 0
-648 651 0
-649 651 0
-650 651 0
648 649 650 -651 0
651 -652 0
499 -652 0
-500 -652 0
-502 -652 0
533 -652 0
-651 -499 500 502 -533 652 0
-641 653 0
-642 653 0
-643 653 0
-652 653 0
641 642 643 652 -653 0
653 -654 0
540 -654 0
541 -654 0
-653 -540 -541 654 0
653 -655 0
540 -655 0
-541 -655 0
-653 -540 541 655 0
-640 656 0
-654 656 0
-655 656 0
640 654 655 -656 0
656 -657 0
493 -657 0
497 -657 0
544 -657 0
546 -657 0
547 -657 0
-656 -493 -497 -544 -546 -547 657 0
656 -658 0
493 -658 0
497 -658 0
544 -658 0
546 -658 0
-547 -658 0
550 -658 0
-656 -493 -497 -544 -546 547 -550 658 0
-657 659 0
-658 659 0
657 658 -659 0
659 -660 0
606 -660 0
-659 -606 660 0
-639 661 0
-660 661 0
639 660 -661 0
477 -662 0
661 -662 0
-477 -661 662 0
-477 -663 0
638 -663 0
477 -638 663 0
-662 664 0
-663 664 0
662 663 -664 0
664 -665 0
-560 -665 0
-664 560 665 0
664 -666 0
560 -666 0
-664 -560 666 0
-665 667 0
-666 667 0
665 666 -667 0
476 -668 0
667 -668 0
-476 -667 668 0
-476 -669 0
664 -669 0
476 -664 669 0
-668 670 0
-669 670 0
668 669 -670 0
670 -671 0
-565 -671 0
-670 565 671 0
670 -672 0
565 -672 0
-670 -565 672 0
-671 673 0
-672 673 0
671 672 -673 0
475 -674 0
673 -674 0
-475 -673 674 0
-475 -675 0
670 -675 0
475 -670 675 0
-674 676 0
-675 676 0
674 675 -676 0
676 -677 0
-570 -677 0
-676 570 677 0
676 -678 0
570 -678 0
-676 -570 678 0
-677 679 0
-678 679 0
677 678 -679 0
474 -680 0
679 -680 0
-474 -679 680 0
676 -681 0
-574 -681 0
-676 574 681 0
676 -682 0
574 -682 0
-676 -574 682 0
-681 683 0
-682 683 0
681 682 -683 0
573 -684 0
683 -684 0
-573 -683 684 0
-573 -685 0
676 -685 0
573 -676 685 0
-684 686 0
-685 686 0
684 685 -686 0
-474 -687 0
686 -687 0
474 -686 687 0
-680 688 0
-687 688 0
680 687 -688 0
-635 -359 -689 0
635 359 -689 0
-635 359 689 0
635 -359 689 0
-688 -473 -690 0
688 473 -690 0
-688 473 690 0
688 -473 690 0
-689 -691 0
-690 -691 0
580 -691 0
689 690 -580 691 0
-240 691 0
